<number of tasks>
50

<cycle time>
1000

<order strength>
0.204


<task times>
1 580
2 448
3 582
4 617
5 520
6 276
7 530
8 463
9 385
10 379
11 627
12 247
13 417
14 368
15 328
16 384
17 467
18 732
19 550
20 533
21 430
22 379
23 281
24 426
25 535
26 494
27 326
28 455
29 346
30 758
31 448
32 581
33 321
34 458
35 389
36 688
37 551
38 504
39 455
40 410
41 367
42 537
43 596
44 364
45 372
46 509
47 512
48 344
49 515
50 530

<precedence relations>
1,14
2,14
3,14
4,14
5,10
6,11
6,13
7,9
8,12
9,14
10,15
11,16
11,17
12,18
13,19
14,20
14,21
14,22
14,23
14,24
14,27
15,25
16,26
18,27
19,28
20,29
20,30
23,36
24,35
25,31
26,32
27,33
27,34
29,37
30,38
32,39
35,40
36,41
37,42
38,43
39,44
39,46
39,48
40,45
41,47
44,50
46,49

<end>
